; NOT NOT NOT NOT => 
(set-option :produce-proofs true)
; 
(set-info :status unknown)
(declare-fun storage_t ((_ BitVec 256) Int (_ BitVec 256)) (_ BitVec 256))
(declare-fun storage_s ((_ BitVec 256) Int (_ BitVec 256)) (_ BitVec 256))
(declare-fun exc_halt_t (Int) Bool)
(declare-fun exc_halt_s (Int) Bool)
(declare-fun stack_t ((_ BitVec 256) Int (_ BitVec 6)) (_ BitVec 256))
(declare-fun stack_s ((_ BitVec 256) Int (_ BitVec 6)) (_ BitVec 256))
(declare-fun sc_t (Int) (_ BitVec 6))
(declare-fun sc_s (Int) (_ BitVec 6))
(declare-fun used_gas_t ((_ BitVec 256) Int) Int)
(declare-fun used_gas_s ((_ BitVec 256) Int) Int)
(assert
 (exists ((x_0 (_ BitVec 256)) )(let (($x7907 (forall ((w (_ BitVec 256)) )(let ((?x7882 (storage_t x_0 0 w)))
 (let ((?x8988 (storage_s x_0 4 w)))
 (= ?x8988 ?x7882))))
 ))
 (let (($x56 (exc_halt_t 0)))
 (let (($x64 (exc_halt_s 4)))
 (let (($x7789 (= $x64 $x56)))
 (let (($x7889 (forall ((n (_ BitVec 6)) )(let ((?x8758 (stack_t x_0 0 n)))
 (let ((?x7804 (stack_s x_0 4 n)))
 (let (($x8759 (= ?x7804 ?x8758)))
 (let ((?x63 (sc_t 0)))
 (let (($x5858 (bvsle ?x63 n)))
 (or $x5858 $x8759)))))))
 ))
 (let ((?x63 (sc_t 0)))
 (let ((?x4305 (sc_s 4)))
 (let (($x8740 (= ?x4305 ?x63)))
 (let ((?x9241 (used_gas_s x_0 0)))
 (let (($x9212 (= ?x9241 (used_gas_t x_0 0))))
 (let (($x7404 (forall ((w (_ BitVec 256)) )(let ((?x7882 (storage_t x_0 0 w)))
 (let ((?x9236 (storage_s x_0 0 w)))
 (= ?x9236 ?x7882))))
 ))
 (let (($x57 (exc_halt_s 0)))
 (let (($x58 (= $x57 $x56)))
 (let (($x6567 (forall ((n (_ BitVec 6)) )(let ((?x8758 (stack_t x_0 0 n)))
 (let ((?x8872 (stack_s x_0 0 n)))
 (let (($x9162 (= ?x8872 ?x8758)))
 (let ((?x63 (sc_t 0)))
 (let (($x5858 (bvsle ?x63 n)))
 (or $x5858 $x9162)))))))
 ))
 (let ((?x72 (sc_s 0)))
 (let (($x73 (= ?x72 ?x63)))
 (let (($x8919 (= $x64 (or (exc_halt_s 3) (not (bvsle (_ bv0 6) (bvadd (_ bv63 6) (sc_s 3))))))))
 (let (($x8641 (forall ((w (_ BitVec 256)) )(let ((?x2128 (storage_s x_0 3 w)))
 (let ((?x8988 (storage_s x_0 4 w)))
 (= ?x8988 ?x2128))))
 ))
 (let (($x3364 (forall ((n (_ BitVec 6)) )(let ((?x275 (sc_s 3)))
 (let ((?x10578 (bvadd (_ bv63 6) ?x275)))
 (let (($x9246 (bvsle ?x10578 n)))
 (or (= (stack_s x_0 4 n) (stack_s x_0 3 n)) $x9246)))))
 ))
 (let (($x10586 (= (stack_s x_0 4 (bvadd (_ bv63 6) ?x4305)) (bvnot (stack_s x_0 3 (bvadd (_ bv63 6) (sc_s 3)))))))
 (let (($x292 (exc_halt_s 3)))
 (let (($x625 (= $x292 (or (exc_halt_s 2) (not (bvsle (_ bv0 6) (bvadd (_ bv63 6) (sc_s 2))))))))
 (let (($x7730 (forall ((w (_ BitVec 256)) )(let ((?x7983 (storage_s x_0 2 w)))
 (let ((?x2128 (storage_s x_0 3 w)))
 (= ?x2128 ?x7983))))
 ))
 (let (($x3774 (forall ((n (_ BitVec 6)) )(let ((?x218 (sc_s 2)))
 (let ((?x9084 (bvadd (_ bv63 6) ?x218)))
 (let (($x10462 (bvsle ?x9084 n)))
 (or (= (stack_s x_0 3 n) (stack_s x_0 2 n)) $x10462)))))
 ))
 (let ((?x218 (sc_s 2)))
 (let ((?x275 (sc_s 3)))
 (let (($x10987 (= ?x275 ?x218)))
 (let ((?x10578 (bvadd (_ bv63 6) ?x275)))
 (let ((?x9529 (stack_s x_0 3 ?x10578)))
 (let (($x247 (exc_halt_s 2)))
 (let (($x7157 (= $x247 (or (exc_halt_s 1) (not (bvsle (_ bv0 6) (bvadd (_ bv63 6) (sc_s 1))))))))
 (let (($x8393 (forall ((w (_ BitVec 256)) )(let ((?x9019 (storage_s x_0 1 w)))
 (let ((?x7983 (storage_s x_0 2 w)))
 (= ?x7983 ?x9019))))
 ))
 (let (($x8629 (forall ((n (_ BitVec 6)) )(let ((?x154 (sc_s 1)))
 (let ((?x5483 (bvadd (_ bv63 6) ?x154)))
 (let (($x8076 (bvsle ?x5483 n)))
 (or (= (stack_s x_0 2 n) (stack_s x_0 1 n)) $x8076)))))
 ))
 (let ((?x154 (sc_s 1)))
 (let (($x9003 (= ?x218 ?x154)))
 (let ((?x9084 (bvadd (_ bv63 6) ?x218)))
 (let ((?x9293 (stack_s x_0 2 ?x9084)))
 (let (($x8669 (forall ((w (_ BitVec 256)) )(let ((?x9236 (storage_s x_0 0 w)))
 (let ((?x9019 (storage_s x_0 1 w)))
 (= ?x9019 ?x9236))))
 ))
 (let (($x446 (forall ((n (_ BitVec 6)) )(or (bvsle (bvadd (_ bv63 6) (sc_s 0)) n) (= (stack_s x_0 1 n) (stack_s x_0 0 n))))
 ))
 (let (($x6439 (= ?x154 ?x72)))
 (let ((?x5483 (bvadd (_ bv63 6) ?x154)))
 (let ((?x9255 (stack_s x_0 1 ?x5483)))
 (let (($x3642 (forall ((w (_ BitVec 256)) )(let ((?x9236 (storage_s x_0 0 w)))
 (= ?x9236 (_ bv0 256))))
 ))
 (let (($x5851 (= ?x9241 0)))
 (let (($x4937 (not $x57)))
 (let (($x3918 (= (stack_s x_0 0 (_ bv0 6)) x_0)))
 (let (($x8685 (= ?x72 (_ bv1 6))))
 (and $x8685 $x3918 $x4937 $x5851 $x3642 (= ?x9255 (bvnot (stack_s x_0 0 (bvadd (_ bv63 6) ?x72)))) (= (used_gas_s x_0 1) (+ 3 ?x9241)) $x6439 $x446 $x8669 (= (exc_halt_s 1) (or $x57 (not (bvsle (_ bv0 6) (bvadd (_ bv63 6) ?x72))))) (= ?x9293 (bvnot ?x9255)) (= (used_gas_s x_0 2) (+ 3 (used_gas_s x_0 1))) $x9003 $x8629 $x8393 $x7157 (= ?x9529 (bvnot ?x9293)) (= (used_gas_s x_0 3) (+ 3 (used_gas_s x_0 2))) $x10987 $x3774 $x7730 $x625 $x10586 (= (used_gas_s x_0 4) (+ 3 (used_gas_s x_0 3))) (= ?x4305 ?x275) $x3364 $x8641 $x8919 $x73 $x6567 $x58 $x7404 $x9212 (not (and $x8740 $x7889 $x7789 $x7907)))))))))))))))))))))))))))))))))))))))))))))))))))
 )
(check-sat)
(get-proof)
